; benchmark generated from python API
(set-info :status unknown)
(declare-fun cell_1_1 () Int)
(declare-fun cell_1_3 () Int)
(declare-fun cell_2_4 () Int)
(declare-fun cell_2_9 () Int)
(declare-fun cell_3_6 () Int)
(declare-fun cell_3_8 () Int)
(declare-fun cell_4_1 () Int)
(declare-fun cell_4_4 () Int)
(declare-fun cell_5_9 () Int)
(declare-fun cell_6_6 () Int)
(declare-fun cell_7_2 () Int)
(declare-fun cell_8_5 () Int)
(declare-fun cell_9_7 () Int)
(declare-fun cell_2_1 () Int)
(declare-fun cell_3_1 () Int)
(declare-fun cell_5_1 () Int)
(declare-fun cell_6_1 () Int)
(declare-fun cell_7_1 () Int)
(declare-fun cell_8_1 () Int)
(declare-fun cell_9_1 () Int)
(declare-fun cell_1_2 () Int)
(declare-fun cell_2_2 () Int)
(declare-fun cell_3_2 () Int)
(declare-fun cell_4_2 () Int)
(declare-fun cell_5_2 () Int)
(declare-fun cell_6_2 () Int)
(declare-fun cell_8_2 () Int)
(declare-fun cell_9_2 () Int)
(declare-fun cell_2_3 () Int)
(declare-fun cell_3_3 () Int)
(declare-fun cell_4_3 () Int)
(declare-fun cell_5_3 () Int)
(declare-fun cell_6_3 () Int)
(declare-fun cell_7_3 () Int)
(declare-fun cell_8_3 () Int)
(declare-fun cell_9_3 () Int)
(declare-fun cell_1_4 () Int)
(declare-fun cell_3_4 () Int)
(declare-fun cell_5_4 () Int)
(declare-fun cell_6_4 () Int)
(declare-fun cell_7_4 () Int)
(declare-fun cell_8_4 () Int)
(declare-fun cell_9_4 () Int)
(declare-fun cell_1_5 () Int)
(declare-fun cell_2_5 () Int)
(declare-fun cell_3_5 () Int)
(declare-fun cell_4_5 () Int)
(declare-fun cell_5_5 () Int)
(declare-fun cell_6_5 () Int)
(declare-fun cell_7_5 () Int)
(declare-fun cell_9_5 () Int)
(declare-fun cell_1_6 () Int)
(declare-fun cell_2_6 () Int)
(declare-fun cell_4_6 () Int)
(declare-fun cell_5_6 () Int)
(declare-fun cell_7_6 () Int)
(declare-fun cell_8_6 () Int)
(declare-fun cell_9_6 () Int)
(declare-fun cell_1_7 () Int)
(declare-fun cell_2_7 () Int)
(declare-fun cell_3_7 () Int)
(declare-fun cell_4_7 () Int)
(declare-fun cell_5_7 () Int)
(declare-fun cell_6_7 () Int)
(declare-fun cell_7_7 () Int)
(declare-fun cell_8_7 () Int)
(declare-fun cell_1_8 () Int)
(declare-fun cell_2_8 () Int)
(declare-fun cell_4_8 () Int)
(declare-fun cell_5_8 () Int)
(declare-fun cell_6_8 () Int)
(declare-fun cell_7_8 () Int)
(declare-fun cell_8_8 () Int)
(declare-fun cell_9_8 () Int)
(declare-fun cell_1_9 () Int)
(declare-fun cell_3_9 () Int)
(declare-fun cell_4_9 () Int)
(declare-fun cell_6_9 () Int)
(declare-fun cell_7_9 () Int)
(declare-fun cell_8_9 () Int)
(declare-fun cell_9_9 () Int)
(assert
 (= cell_1_1 2))
(assert
 (= cell_1_3 1))
(assert
 (= cell_2_4 1))
(assert
 (= cell_2_9 2))
(assert
 (= cell_3_6 2))
(assert
 (= cell_3_8 1))
(assert
 (= cell_4_1 1))
(assert
 (= cell_4_4 2))
(assert
 (= cell_5_9 1))
(assert
 (= cell_6_6 1))
(assert
 (= cell_7_2 1))
(assert
 (= cell_8_5 1))
(assert
 (= cell_9_7 1))
(assert
 (let (($x8843 (= cell_1_1 2)))
 (or (= cell_1_1 1) $x8843 (= cell_1_1 3) (= cell_1_1 4) (= cell_1_1 5) (= cell_1_1 6) (= cell_1_1 7) (= cell_1_1 8) (= cell_1_1 9))))
(assert
 (let (($x8863 (= cell_2_1 9)))
 (let (($x8223 (= cell_2_1 8)))
 (let (($x4977 (= cell_2_1 7)))
 (let (($x2686 (= cell_2_1 6)))
 (let (($x3707 (= cell_2_1 5)))
 (let (($x9712 (= cell_2_1 4)))
 (let (($x5672 (= cell_2_1 3)))
 (let (($x6780 (= cell_2_1 2)))
 (let (($x1931 (= cell_2_1 1)))
 (or $x1931 $x6780 $x5672 $x9712 $x3707 $x2686 $x4977 $x8223 $x8863)))))))))))
(assert
 (let (($x311 (= cell_3_1 9)))
 (let (($x6924 (= cell_3_1 8)))
 (let (($x611 (= cell_3_1 7)))
 (let (($x9934 (= cell_3_1 6)))
 (let (($x7785 (= cell_3_1 5)))
 (let (($x5629 (= cell_3_1 4)))
 (let (($x325 (= cell_3_1 3)))
 (let (($x4736 (= cell_3_1 2)))
 (let (($x9304 (= cell_3_1 1)))
 (or $x9304 $x4736 $x325 $x5629 $x7785 $x9934 $x611 $x6924 $x311)))))))))))
(assert
 (let (($x9590 (= cell_4_1 1)))
 (or $x9590 (= cell_4_1 2) (= cell_4_1 3) (= cell_4_1 4) (= cell_4_1 5) (= cell_4_1 6) (= cell_4_1 7) (= cell_4_1 8) (= cell_4_1 9))))
(assert
 (let (($x6328 (= cell_5_1 9)))
 (let (($x7120 (= cell_5_1 8)))
 (let (($x3521 (= cell_5_1 7)))
 (let (($x5789 (= cell_5_1 6)))
 (let (($x9222 (= cell_5_1 5)))
 (let (($x4429 (= cell_5_1 4)))
 (let (($x5469 (= cell_5_1 3)))
 (let (($x9465 (= cell_5_1 2)))
 (let (($x3464 (= cell_5_1 1)))
 (or $x3464 $x9465 $x5469 $x4429 $x9222 $x5789 $x3521 $x7120 $x6328)))))))))))
(assert
 (let (($x3694 (= cell_6_1 9)))
 (let (($x6486 (= cell_6_1 8)))
 (let (($x3351 (= cell_6_1 7)))
 (let (($x3862 (= cell_6_1 6)))
 (let (($x2150 (= cell_6_1 5)))
 (let (($x1521 (= cell_6_1 4)))
 (let (($x8672 (= cell_6_1 3)))
 (let (($x6887 (= cell_6_1 2)))
 (let (($x2464 (= cell_6_1 1)))
 (or $x2464 $x6887 $x8672 $x1521 $x2150 $x3862 $x3351 $x6486 $x3694)))))))))))
(assert
 (let (($x5874 (= cell_7_1 9)))
 (let (($x9515 (= cell_7_1 8)))
 (let (($x2305 (= cell_7_1 7)))
 (let (($x7173 (= cell_7_1 6)))
 (let (($x6180 (= cell_7_1 5)))
 (let (($x3019 (= cell_7_1 4)))
 (let (($x2359 (= cell_7_1 3)))
 (let (($x2023 (= cell_7_1 2)))
 (let (($x1790 (= cell_7_1 1)))
 (or $x1790 $x2023 $x2359 $x3019 $x6180 $x7173 $x2305 $x9515 $x5874)))))))))))
(assert
 (let (($x8643 (= cell_8_1 9)))
 (let (($x1611 (= cell_8_1 8)))
 (let (($x2843 (= cell_8_1 7)))
 (let (($x8319 (= cell_8_1 6)))
 (let (($x4117 (= cell_8_1 5)))
 (let (($x1450 (= cell_8_1 4)))
 (let (($x9260 (= cell_8_1 3)))
 (let (($x4129 (= cell_8_1 2)))
 (let (($x9019 (= cell_8_1 1)))
 (or $x9019 $x4129 $x9260 $x1450 $x4117 $x8319 $x2843 $x1611 $x8643)))))))))))
(assert
 (let (($x8692 (= cell_9_1 9)))
 (let (($x7595 (= cell_9_1 8)))
 (let (($x4424 (= cell_9_1 7)))
 (let (($x8800 (= cell_9_1 6)))
 (let (($x9140 (= cell_9_1 5)))
 (let (($x8461 (= cell_9_1 4)))
 (let (($x1581 (= cell_9_1 3)))
 (let (($x9675 (= cell_9_1 2)))
 (let (($x8333 (= cell_9_1 1)))
 (or $x8333 $x9675 $x1581 $x8461 $x9140 $x8800 $x4424 $x7595 $x8692)))))))))))
(assert
 (let (($x3081 (= cell_1_2 9)))
 (let (($x2773 (= cell_1_2 8)))
 (let (($x2901 (= cell_1_2 7)))
 (let (($x3967 (= cell_1_2 6)))
 (let (($x8312 (= cell_1_2 5)))
 (let (($x5842 (= cell_1_2 4)))
 (let (($x9810 (= cell_1_2 3)))
 (let (($x338 (= cell_1_2 2)))
 (let (($x5808 (= cell_1_2 1)))
 (or $x5808 $x338 $x9810 $x5842 $x8312 $x3967 $x2901 $x2773 $x3081)))))))))))
(assert
 (let (($x6205 (= cell_2_2 9)))
 (let (($x8707 (= cell_2_2 8)))
 (let (($x4560 (= cell_2_2 7)))
 (let (($x2264 (= cell_2_2 6)))
 (let (($x4895 (= cell_2_2 5)))
 (let (($x5232 (= cell_2_2 4)))
 (let (($x4810 (= cell_2_2 3)))
 (let (($x9100 (= cell_2_2 2)))
 (let (($x4860 (= cell_2_2 1)))
 (or $x4860 $x9100 $x4810 $x5232 $x4895 $x2264 $x4560 $x8707 $x6205)))))))))))
(assert
 (let (($x8384 (= cell_3_2 9)))
 (let (($x4472 (= cell_3_2 8)))
 (let (($x437 (= cell_3_2 7)))
 (let (($x5047 (= cell_3_2 6)))
 (let (($x3176 (= cell_3_2 5)))
 (let (($x9301 (= cell_3_2 4)))
 (let (($x5686 (= cell_3_2 3)))
 (let (($x3336 (= cell_3_2 2)))
 (let (($x6134 (= cell_3_2 1)))
 (or $x6134 $x3336 $x5686 $x9301 $x3176 $x5047 $x437 $x4472 $x8384)))))))))))
(assert
 (let (($x2467 (= cell_4_2 9)))
 (let (($x8362 (= cell_4_2 8)))
 (let (($x787 (= cell_4_2 7)))
 (let (($x131 (= cell_4_2 6)))
 (let (($x3157 (= cell_4_2 5)))
 (let (($x6704 (= cell_4_2 4)))
 (let (($x10030 (= cell_4_2 3)))
 (let (($x8112 (= cell_4_2 2)))
 (let (($x5556 (= cell_4_2 1)))
 (or $x5556 $x8112 $x10030 $x6704 $x3157 $x131 $x787 $x8362 $x2467)))))))))))
(assert
 (let (($x9300 (= cell_5_2 9)))
 (let (($x6510 (= cell_5_2 8)))
 (let (($x2316 (= cell_5_2 7)))
 (let (($x9960 (= cell_5_2 6)))
 (let (($x9116 (= cell_5_2 5)))
 (let (($x6977 (= cell_5_2 4)))
 (let (($x9224 (= cell_5_2 3)))
 (let (($x2357 (= cell_5_2 2)))
 (let (($x5541 (= cell_5_2 1)))
 (or $x5541 $x2357 $x9224 $x6977 $x9116 $x9960 $x2316 $x6510 $x9300)))))))))))
(assert
 (let (($x5510 (= cell_6_2 9)))
 (let (($x928 (= cell_6_2 8)))
 (let (($x5501 (= cell_6_2 7)))
 (let (($x4517 (= cell_6_2 6)))
 (let (($x7292 (= cell_6_2 5)))
 (let (($x4084 (= cell_6_2 4)))
 (let (($x9184 (= cell_6_2 3)))
 (let (($x6480 (= cell_6_2 2)))
 (let (($x4214 (= cell_6_2 1)))
 (or $x4214 $x6480 $x9184 $x4084 $x7292 $x4517 $x5501 $x928 $x5510)))))))))))
(assert
 (let (($x9764 (= cell_7_2 1)))
 (or $x9764 (= cell_7_2 2) (= cell_7_2 3) (= cell_7_2 4) (= cell_7_2 5) (= cell_7_2 6) (= cell_7_2 7) (= cell_7_2 8) (= cell_7_2 9))))
(assert
 (let (($x1757 (= cell_8_2 9)))
 (let (($x6876 (= cell_8_2 8)))
 (let (($x2696 (= cell_8_2 7)))
 (let (($x473 (= cell_8_2 6)))
 (let (($x1377 (= cell_8_2 5)))
 (let (($x5307 (= cell_8_2 4)))
 (let (($x4152 (= cell_8_2 3)))
 (let (($x2749 (= cell_8_2 2)))
 (let (($x3296 (= cell_8_2 1)))
 (or $x3296 $x2749 $x4152 $x5307 $x1377 $x473 $x2696 $x6876 $x1757)))))))))))
(assert
 (let (($x6498 (= cell_9_2 9)))
 (let (($x330 (= cell_9_2 8)))
 (let (($x5407 (= cell_9_2 7)))
 (let (($x9528 (= cell_9_2 6)))
 (let (($x5833 (= cell_9_2 5)))
 (let (($x9594 (= cell_9_2 4)))
 (let (($x4281 (= cell_9_2 3)))
 (let (($x16 (= cell_9_2 2)))
 (let (($x4550 (= cell_9_2 1)))
 (or $x4550 $x16 $x4281 $x9594 $x5833 $x9528 $x5407 $x330 $x6498)))))))))))
(assert
 (let (($x4004 (= cell_1_3 1)))
 (or $x4004 (= cell_1_3 2) (= cell_1_3 3) (= cell_1_3 4) (= cell_1_3 5) (= cell_1_3 6) (= cell_1_3 7) (= cell_1_3 8) (= cell_1_3 9))))
(assert
 (let (($x5353 (= cell_2_3 9)))
 (let (($x2869 (= cell_2_3 8)))
 (let (($x2093 (= cell_2_3 7)))
 (let (($x6813 (= cell_2_3 6)))
 (let (($x9040 (= cell_2_3 5)))
 (let (($x2366 (= cell_2_3 4)))
 (let (($x6723 (= cell_2_3 3)))
 (let (($x1361 (= cell_2_3 2)))
 (let (($x2710 (= cell_2_3 1)))
 (or $x2710 $x1361 $x6723 $x2366 $x9040 $x6813 $x2093 $x2869 $x5353)))))))))))
(assert
 (let (($x2355 (= cell_3_3 9)))
 (let (($x9902 (= cell_3_3 8)))
 (let (($x7558 (= cell_3_3 7)))
 (let (($x4372 (= cell_3_3 6)))
 (let (($x6753 (= cell_3_3 5)))
 (let (($x468 (= cell_3_3 4)))
 (let (($x451 (= cell_3_3 3)))
 (let (($x9261 (= cell_3_3 2)))
 (let (($x3200 (= cell_3_3 1)))
 (or $x3200 $x9261 $x451 $x468 $x6753 $x4372 $x7558 $x9902 $x2355)))))))))))
(assert
 (let (($x4866 (= cell_4_3 9)))
 (let (($x7706 (= cell_4_3 8)))
 (let (($x2432 (= cell_4_3 7)))
 (let (($x6658 (= cell_4_3 6)))
 (let (($x3462 (= cell_4_3 5)))
 (let (($x9312 (= cell_4_3 4)))
 (let (($x4531 (= cell_4_3 3)))
 (let (($x9845 (= cell_4_3 2)))
 (let (($x7244 (= cell_4_3 1)))
 (or $x7244 $x9845 $x4531 $x9312 $x3462 $x6658 $x2432 $x7706 $x4866)))))))))))
(assert
 (let (($x6257 (= cell_5_3 9)))
 (let (($x3293 (= cell_5_3 8)))
 (let (($x3968 (= cell_5_3 7)))
 (let (($x3436 (= cell_5_3 6)))
 (let (($x2640 (= cell_5_3 5)))
 (let (($x8724 (= cell_5_3 4)))
 (let (($x9466 (= cell_5_3 3)))
 (let (($x3536 (= cell_5_3 2)))
 (let (($x187 (= cell_5_3 1)))
 (or $x187 $x3536 $x9466 $x8724 $x2640 $x3436 $x3968 $x3293 $x6257)))))))))))
(assert
 (let (($x9047 (= cell_6_3 9)))
 (let (($x8651 (= cell_6_3 8)))
 (let (($x1170 (= cell_6_3 7)))
 (let (($x2197 (= cell_6_3 6)))
 (let (($x6084 (= cell_6_3 5)))
 (let (($x6819 (= cell_6_3 4)))
 (let (($x4588 (= cell_6_3 3)))
 (let (($x2083 (= cell_6_3 2)))
 (let (($x714 (= cell_6_3 1)))
 (or $x714 $x2083 $x4588 $x6819 $x6084 $x2197 $x1170 $x8651 $x9047)))))))))))
(assert
 (let (($x154 (= cell_7_3 1)))
 (or $x154 (= cell_7_3 2) (= cell_7_3 3) (= cell_7_3 4) (= cell_7_3 5) (= cell_7_3 6) (= cell_7_3 7) (= cell_7_3 8) (= cell_7_3 9))))
(assert
 (let (($x6690 (= cell_8_3 9)))
 (let (($x10184 (= cell_8_3 8)))
 (let (($x9378 (= cell_8_3 7)))
 (let (($x5080 (= cell_8_3 6)))
 (let (($x5985 (= cell_8_3 5)))
 (let (($x5969 (= cell_8_3 4)))
 (let (($x3909 (= cell_8_3 3)))
 (let (($x7717 (= cell_8_3 2)))
 (let (($x2730 (= cell_8_3 1)))
 (or $x2730 $x7717 $x3909 $x5969 $x5985 $x5080 $x9378 $x10184 $x6690)))))))))))
(assert
 (let (($x586 (= cell_9_3 9)))
 (let (($x7877 (= cell_9_3 8)))
 (let (($x8932 (= cell_9_3 7)))
 (let (($x5922 (= cell_9_3 6)))
 (let (($x7330 (= cell_9_3 5)))
 (let (($x3179 (= cell_9_3 4)))
 (let (($x1950 (= cell_9_3 3)))
 (let (($x6206 (= cell_9_3 2)))
 (let (($x758 (= cell_9_3 1)))
 (or $x758 $x6206 $x1950 $x3179 $x7330 $x5922 $x8932 $x7877 $x586)))))))))))
(assert
 (let (($x10050 (= cell_1_4 9)))
 (let (($x9490 (= cell_1_4 8)))
 (let (($x9948 (= cell_1_4 7)))
 (let (($x4242 (= cell_1_4 6)))
 (let (($x7494 (= cell_1_4 5)))
 (let (($x1522 (= cell_1_4 4)))
 (let (($x1740 (= cell_1_4 3)))
 (let (($x5545 (= cell_1_4 2)))
 (let (($x6017 (= cell_1_4 1)))
 (or $x6017 $x5545 $x1740 $x1522 $x7494 $x4242 $x9948 $x9490 $x10050)))))))))))
(assert
 (let (($x424 (= cell_2_4 1)))
 (or $x424 (= cell_2_4 2) (= cell_2_4 3) (= cell_2_4 4) (= cell_2_4 5) (= cell_2_4 6) (= cell_2_4 7) (= cell_2_4 8) (= cell_2_4 9))))
(assert
 (let (($x3689 (= cell_3_4 9)))
 (let (($x5513 (= cell_3_4 8)))
 (let (($x2657 (= cell_3_4 7)))
 (let (($x2535 (= cell_3_4 6)))
 (let (($x10031 (= cell_3_4 5)))
 (let (($x8439 (= cell_3_4 4)))
 (let (($x1528 (= cell_3_4 3)))
 (let (($x1628 (= cell_3_4 2)))
 (let (($x7587 (= cell_3_4 1)))
 (or $x7587 $x1628 $x1528 $x8439 $x10031 $x2535 $x2657 $x5513 $x3689)))))))))))
(assert
 (let (($x6912 (= cell_4_4 2)))
 (or (= cell_4_4 1) $x6912 (= cell_4_4 3) (= cell_4_4 4) (= cell_4_4 5) (= cell_4_4 6) (= cell_4_4 7) (= cell_4_4 8) (= cell_4_4 9))))
(assert
 (let (($x3276 (= cell_5_4 9)))
 (let (($x1961 (= cell_5_4 8)))
 (let (($x4167 (= cell_5_4 7)))
 (let (($x771 (= cell_5_4 6)))
 (let (($x4743 (= cell_5_4 5)))
 (let (($x10135 (= cell_5_4 4)))
 (let (($x4459 (= cell_5_4 3)))
 (let (($x4616 (= cell_5_4 2)))
 (let (($x5859 (= cell_5_4 1)))
 (or $x5859 $x4616 $x4459 $x10135 $x4743 $x771 $x4167 $x1961 $x3276)))))))))))
(assert
 (let (($x956 (= cell_6_4 9)))
 (let (($x3929 (= cell_6_4 8)))
 (let (($x9533 (= cell_6_4 7)))
 (let (($x4109 (= cell_6_4 6)))
 (let (($x4411 (= cell_6_4 5)))
 (let (($x2840 (= cell_6_4 4)))
 (let (($x1853 (= cell_6_4 3)))
 (let (($x10102 (= cell_6_4 2)))
 (let (($x7425 (= cell_6_4 1)))
 (or $x7425 $x10102 $x1853 $x2840 $x4411 $x4109 $x9533 $x3929 $x956)))))))))))
(assert
 (let (($x2558 (= cell_7_4 9)))
 (let (($x94 (= cell_7_4 8)))
 (let (($x4623 (= cell_7_4 7)))
 (let (($x645 (= cell_7_4 6)))
 (let (($x8601 (= cell_7_4 5)))
 (let (($x6561 (= cell_7_4 4)))
 (let (($x5030 (= cell_7_4 3)))
 (let (($x4428 (= cell_7_4 2)))
 (let (($x4964 (= cell_7_4 1)))
 (or $x4964 $x4428 $x5030 $x6561 $x8601 $x645 $x4623 $x94 $x2558)))))))))))
(assert
 (let (($x365 (= cell_8_4 9)))
 (let (($x671 (= cell_8_4 8)))
 (let (($x894 (= cell_8_4 7)))
 (let (($x6302 (= cell_8_4 6)))
 (let (($x8604 (= cell_8_4 5)))
 (let (($x6503 (= cell_8_4 4)))
 (let (($x4277 (= cell_8_4 3)))
 (let (($x8087 (= cell_8_4 2)))
 (let (($x592 (= cell_8_4 1)))
 (or $x592 $x8087 $x4277 $x6503 $x8604 $x6302 $x894 $x671 $x365)))))))))))
(assert
 (let (($x2180 (= cell_9_4 9)))
 (let (($x3419 (= cell_9_4 8)))
 (let (($x9856 (= cell_9_4 7)))
 (let (($x934 (= cell_9_4 6)))
 (let (($x6823 (= cell_9_4 5)))
 (let (($x5161 (= cell_9_4 4)))
 (let (($x7260 (= cell_9_4 3)))
 (let (($x6675 (= cell_9_4 2)))
 (let (($x9585 (= cell_9_4 1)))
 (or $x9585 $x6675 $x7260 $x5161 $x6823 $x934 $x9856 $x3419 $x2180)))))))))))
(assert
 (let (($x8884 (= cell_1_5 9)))
 (let (($x6039 (= cell_1_5 8)))
 (let (($x4767 (= cell_1_5 7)))
 (let (($x250 (= cell_1_5 6)))
 (let (($x3483 (= cell_1_5 5)))
 (let (($x9502 (= cell_1_5 4)))
 (let (($x7526 (= cell_1_5 3)))
 (let (($x5711 (= cell_1_5 2)))
 (let (($x8503 (= cell_1_5 1)))
 (or $x8503 $x5711 $x7526 $x9502 $x3483 $x250 $x4767 $x6039 $x8884)))))))))))
(assert
 (let (($x3923 (= cell_2_5 9)))
 (let (($x5215 (= cell_2_5 8)))
 (let (($x1973 (= cell_2_5 7)))
 (let (($x6674 (= cell_2_5 6)))
 (let (($x8139 (= cell_2_5 5)))
 (let (($x1727 (= cell_2_5 4)))
 (let (($x7411 (= cell_2_5 3)))
 (let (($x1223 (= cell_2_5 2)))
 (let (($x4040 (= cell_2_5 1)))
 (or $x4040 $x1223 $x7411 $x1727 $x8139 $x6674 $x1973 $x5215 $x3923)))))))))))
(assert
 (let (($x3551 (= cell_3_5 9)))
 (let (($x711 (= cell_3_5 8)))
 (let (($x854 (= cell_3_5 7)))
 (let (($x6664 (= cell_3_5 6)))
 (let (($x7640 (= cell_3_5 5)))
 (let (($x8396 (= cell_3_5 4)))
 (let (($x3597 (= cell_3_5 3)))
 (let (($x9789 (= cell_3_5 2)))
 (let (($x2682 (= cell_3_5 1)))
 (or $x2682 $x9789 $x3597 $x8396 $x7640 $x6664 $x854 $x711 $x3551)))))))))))
(assert
 (let (($x5902 (= cell_4_5 9)))
 (let (($x2838 (= cell_4_5 8)))
 (let (($x4161 (= cell_4_5 7)))
 (let (($x2090 (= cell_4_5 6)))
 (let (($x971 (= cell_4_5 5)))
 (let (($x911 (= cell_4_5 4)))
 (let (($x3345 (= cell_4_5 3)))
 (let (($x4838 (= cell_4_5 2)))
 (let (($x3191 (= cell_4_5 1)))
 (or $x3191 $x4838 $x3345 $x911 $x971 $x2090 $x4161 $x2838 $x5902)))))))))))
(assert
 (let (($x6424 (= cell_5_5 9)))
 (let (($x8718 (= cell_5_5 8)))
 (let (($x9289 (= cell_5_5 7)))
 (let (($x6843 (= cell_5_5 6)))
 (let (($x3780 (= cell_5_5 5)))
 (let (($x5787 (= cell_5_5 4)))
 (let (($x2981 (= cell_5_5 3)))
 (let (($x3543 (= cell_5_5 2)))
 (let (($x9936 (= cell_5_5 1)))
 (or $x9936 $x3543 $x2981 $x5787 $x3780 $x6843 $x9289 $x8718 $x6424)))))))))))
(assert
 (let (($x4436 (= cell_6_5 9)))
 (let (($x1951 (= cell_6_5 8)))
 (let (($x1976 (= cell_6_5 7)))
 (let (($x595 (= cell_6_5 6)))
 (let (($x9626 (= cell_6_5 5)))
 (let (($x831 (= cell_6_5 4)))
 (let (($x9213 (= cell_6_5 3)))
 (let (($x8266 (= cell_6_5 2)))
 (let (($x3224 (= cell_6_5 1)))
 (or $x3224 $x8266 $x9213 $x831 $x9626 $x595 $x1976 $x1951 $x4436)))))))))))
(assert
 (let (($x6376 (= cell_7_5 9)))
 (let (($x638 (= cell_7_5 8)))
 (let (($x7876 (= cell_7_5 7)))
 (let (($x1244 (= cell_7_5 6)))
 (let (($x2746 (= cell_7_5 5)))
 (let (($x5914 (= cell_7_5 4)))
 (let (($x7263 (= cell_7_5 3)))
 (let (($x7628 (= cell_7_5 2)))
 (let (($x9434 (= cell_7_5 1)))
 (or $x9434 $x7628 $x7263 $x5914 $x2746 $x1244 $x7876 $x638 $x6376)))))))))))
(assert
 (let (($x7837 (= cell_8_5 1)))
 (or $x7837 (= cell_8_5 2) (= cell_8_5 3) (= cell_8_5 4) (= cell_8_5 5) (= cell_8_5 6) (= cell_8_5 7) (= cell_8_5 8) (= cell_8_5 9))))
(assert
 (let (($x6014 (= cell_9_5 9)))
 (let (($x1021 (= cell_9_5 8)))
 (let (($x503 (= cell_9_5 7)))
 (let (($x346 (= cell_9_5 6)))
 (let (($x100 (= cell_9_5 5)))
 (let (($x6751 (= cell_9_5 4)))
 (let (($x4431 (= cell_9_5 3)))
 (let (($x7835 (= cell_9_5 2)))
 (let (($x9998 (= cell_9_5 1)))
 (or $x9998 $x7835 $x4431 $x6751 $x100 $x346 $x503 $x1021 $x6014)))))))))))
(assert
 (let (($x4383 (= cell_1_6 9)))
 (let (($x1041 (= cell_1_6 8)))
 (let (($x3380 (= cell_1_6 7)))
 (let (($x8262 (= cell_1_6 6)))
 (let (($x2575 (= cell_1_6 5)))
 (let (($x4621 (= cell_1_6 4)))
 (let (($x5360 (= cell_1_6 3)))
 (let (($x751 (= cell_1_6 2)))
 (let (($x4278 (= cell_1_6 1)))
 (or $x4278 $x751 $x5360 $x4621 $x2575 $x8262 $x3380 $x1041 $x4383)))))))))))
(assert
 (let (($x1018 (= cell_2_6 9)))
 (let (($x8459 (= cell_2_6 8)))
 (let (($x1148 (= cell_2_6 7)))
 (let (($x4043 (= cell_2_6 6)))
 (let (($x5765 (= cell_2_6 5)))
 (let (($x3298 (= cell_2_6 4)))
 (let (($x315 (= cell_2_6 3)))
 (let (($x8732 (= cell_2_6 2)))
 (let (($x302 (= cell_2_6 1)))
 (or $x302 $x8732 $x315 $x3298 $x5765 $x4043 $x1148 $x8459 $x1018)))))))))))
(assert
 (let (($x4953 (= cell_3_6 2)))
 (or (= cell_3_6 1) $x4953 (= cell_3_6 3) (= cell_3_6 4) (= cell_3_6 5) (= cell_3_6 6) (= cell_3_6 7) (= cell_3_6 8) (= cell_3_6 9))))
(assert
 (let (($x866 (= cell_4_6 9)))
 (let (($x9534 (= cell_4_6 8)))
 (let (($x6349 (= cell_4_6 7)))
 (let (($x7539 (= cell_4_6 6)))
 (let (($x5177 (= cell_4_6 5)))
 (let (($x5577 (= cell_4_6 4)))
 (let (($x1771 (= cell_4_6 3)))
 (let (($x3831 (= cell_4_6 2)))
 (let (($x1778 (= cell_4_6 1)))
 (or $x1778 $x3831 $x1771 $x5577 $x5177 $x7539 $x6349 $x9534 $x866)))))))))))
(assert
 (let (($x2045 (= cell_5_6 9)))
 (let (($x3898 (= cell_5_6 8)))
 (let (($x2210 (= cell_5_6 7)))
 (let (($x9098 (= cell_5_6 6)))
 (let (($x4410 (= cell_5_6 5)))
 (let (($x9772 (= cell_5_6 4)))
 (let (($x3030 (= cell_5_6 3)))
 (let (($x8519 (= cell_5_6 2)))
 (let (($x3925 (= cell_5_6 1)))
 (or $x3925 $x8519 $x3030 $x9772 $x4410 $x9098 $x2210 $x3898 $x2045)))))))))))
(assert
 (let (($x3903 (= cell_6_6 1)))
 (or $x3903 (= cell_6_6 2) (= cell_6_6 3) (= cell_6_6 4) (= cell_6_6 5) (= cell_6_6 6) (= cell_6_6 7) (= cell_6_6 8) (= cell_6_6 9))))
(assert
 (let (($x3286 (= cell_7_6 9)))
 (let (($x7138 (= cell_7_6 8)))
 (let (($x1568 (= cell_7_6 7)))
 (let (($x10129 (= cell_7_6 6)))
 (let (($x5590 (= cell_7_6 5)))
 (let (($x7083 (= cell_7_6 4)))
 (let (($x4197 (= cell_7_6 3)))
 (let (($x6416 (= cell_7_6 2)))
 (let (($x6062 (= cell_7_6 1)))
 (or $x6062 $x6416 $x4197 $x7083 $x5590 $x10129 $x1568 $x7138 $x3286)))))))))))
(assert
 (let (($x3467 (= cell_8_6 2)))
 (let (($x7228 (= cell_8_6 1)))
 (or $x7228 $x3467 (= cell_8_6 3) (= cell_8_6 4) (= cell_8_6 5) (= cell_8_6 6) (= cell_8_6 7) (= cell_8_6 8) (= cell_8_6 9)))))
(assert
 (let (($x3866 (= cell_9_6 9)))
 (let (($x1319 (= cell_9_6 8)))
 (let (($x8671 (= cell_9_6 7)))
 (let (($x9815 (= cell_9_6 6)))
 (let (($x10217 (= cell_9_6 5)))
 (let (($x2580 (= cell_9_6 4)))
 (let (($x4762 (= cell_9_6 3)))
 (let (($x2699 (= cell_9_6 2)))
 (let (($x1531 (= cell_9_6 1)))
 (or $x1531 $x2699 $x4762 $x2580 $x10217 $x9815 $x8671 $x1319 $x3866)))))))))))
(assert
 (let (($x2540 (= cell_1_7 9)))
 (let (($x5237 (= cell_1_7 8)))
 (let (($x9899 (= cell_1_7 7)))
 (let (($x3621 (= cell_1_7 6)))
 (let (($x5218 (= cell_1_7 5)))
 (let (($x2303 (= cell_1_7 4)))
 (let (($x7467 (= cell_1_7 3)))
 (let (($x2160 (= cell_1_7 2)))
 (let (($x6225 (= cell_1_7 1)))
 (or $x6225 $x2160 $x7467 $x2303 $x5218 $x3621 $x9899 $x5237 $x2540)))))))))))
(assert
 (let (($x3570 (= cell_2_7 9)))
 (let (($x3562 (= cell_2_7 8)))
 (let (($x1460 (= cell_2_7 7)))
 (let (($x61 (= cell_2_7 6)))
 (let (($x2582 (= cell_2_7 5)))
 (let (($x10150 (= cell_2_7 4)))
 (let (($x2601 (= cell_2_7 3)))
 (let (($x57 (= cell_2_7 2)))
 (let (($x10248 (= cell_2_7 1)))
 (or $x10248 $x57 $x2601 $x10150 $x2582 $x61 $x1460 $x3562 $x3570)))))))))))
(assert
 (let (($x9781 (= cell_3_7 9)))
 (let (($x5560 (= cell_3_7 8)))
 (let (($x2590 (= cell_3_7 7)))
 (let (($x4270 (= cell_3_7 6)))
 (let (($x1075 (= cell_3_7 5)))
 (let (($x7804 (= cell_3_7 4)))
 (let (($x9821 (= cell_3_7 3)))
 (let (($x2273 (= cell_3_7 2)))
 (let (($x5550 (= cell_3_7 1)))
 (or $x5550 $x2273 $x9821 $x7804 $x1075 $x4270 $x2590 $x5560 $x9781)))))))))))
(assert
 (let (($x8723 (= cell_4_7 9)))
 (let (($x4513 (= cell_4_7 8)))
 (let (($x4607 (= cell_4_7 7)))
 (let (($x7084 (= cell_4_7 6)))
 (let (($x4175 (= cell_4_7 5)))
 (let (($x3529 (= cell_4_7 4)))
 (let (($x323 (= cell_4_7 3)))
 (let (($x9583 (= cell_4_7 2)))
 (let (($x6108 (= cell_4_7 1)))
 (or $x6108 $x9583 $x323 $x3529 $x4175 $x7084 $x4607 $x4513 $x8723)))))))))))
(assert
 (let (($x2971 (= cell_5_7 9)))
 (let (($x7773 (= cell_5_7 8)))
 (let (($x3941 (= cell_5_7 7)))
 (let (($x1104 (= cell_5_7 6)))
 (let (($x1815 (= cell_5_7 5)))
 (let (($x5175 (= cell_5_7 4)))
 (let (($x8965 (= cell_5_7 3)))
 (let (($x206 (= cell_5_7 2)))
 (let (($x6181 (= cell_5_7 1)))
 (or $x6181 $x206 $x8965 $x5175 $x1815 $x1104 $x3941 $x7773 $x2971)))))))))))
(assert
 (let (($x8142 (= cell_6_7 9)))
 (let (($x1696 (= cell_6_7 8)))
 (let (($x9699 (= cell_6_7 7)))
 (let (($x3703 (= cell_6_7 6)))
 (let (($x3475 (= cell_6_7 5)))
 (let (($x8597 (= cell_6_7 4)))
 (let (($x7674 (= cell_6_7 3)))
 (let (($x1116 (= cell_6_7 2)))
 (let (($x210 (= cell_6_7 1)))
 (or $x210 $x1116 $x7674 $x8597 $x3475 $x3703 $x9699 $x1696 $x8142)))))))))))
(assert
 (let (($x1617 (= cell_7_7 9)))
 (let (($x6380 (= cell_7_7 8)))
 (let (($x361 (= cell_7_7 7)))
 (let (($x926 (= cell_7_7 6)))
 (let (($x1111 (= cell_7_7 5)))
 (let (($x1626 (= cell_7_7 4)))
 (let (($x7264 (= cell_7_7 3)))
 (let (($x2830 (= cell_7_7 2)))
 (let (($x3133 (= cell_7_7 1)))
 (or $x3133 $x2830 $x7264 $x1626 $x1111 $x926 $x361 $x6380 $x1617)))))))))))
(assert
 (let (($x1140 (= cell_8_7 9)))
 (let (($x8531 (= cell_8_7 8)))
 (let (($x6232 (= cell_8_7 7)))
 (let (($x5258 (= cell_8_7 6)))
 (let (($x8284 (= cell_8_7 5)))
 (let (($x6972 (= cell_8_7 4)))
 (let (($x4408 (= cell_8_7 3)))
 (let (($x2956 (= cell_8_7 2)))
 (let (($x6390 (= cell_8_7 1)))
 (or $x6390 $x2956 $x4408 $x6972 $x8284 $x5258 $x6232 $x8531 $x1140)))))))))))
(assert
 (let (($x7613 (= cell_9_7 1)))
 (or $x7613 (= cell_9_7 2) (= cell_9_7 3) (= cell_9_7 4) (= cell_9_7 5) (= cell_9_7 6) (= cell_9_7 7) (= cell_9_7 8) (= cell_9_7 9))))
(assert
 (let (($x6729 (= cell_1_8 9)))
 (let (($x2212 (= cell_1_8 8)))
 (let (($x1658 (= cell_1_8 7)))
 (let (($x1457 (= cell_1_8 6)))
 (let (($x8870 (= cell_1_8 5)))
 (let (($x8596 (= cell_1_8 4)))
 (let (($x8291 (= cell_1_8 3)))
 (let (($x950 (= cell_1_8 2)))
 (let (($x9062 (= cell_1_8 1)))
 (or $x9062 $x950 $x8291 $x8596 $x8870 $x1457 $x1658 $x2212 $x6729)))))))))))
(assert
 (let (($x5667 (= cell_2_8 9)))
 (let (($x4649 (= cell_2_8 8)))
 (let (($x2886 (= cell_2_8 7)))
 (let (($x9835 (= cell_2_8 6)))
 (let (($x2114 (= cell_2_8 5)))
 (let (($x6921 (= cell_2_8 4)))
 (let (($x2423 (= cell_2_8 3)))
 (let (($x1397 (= cell_2_8 2)))
 (let (($x3790 (= cell_2_8 1)))
 (or $x3790 $x1397 $x2423 $x6921 $x2114 $x9835 $x2886 $x4649 $x5667)))))))))))
(assert
 (let (($x3822 (= cell_3_8 1)))
 (or $x3822 (= cell_3_8 2) (= cell_3_8 3) (= cell_3_8 4) (= cell_3_8 5) (= cell_3_8 6) (= cell_3_8 7) (= cell_3_8 8) (= cell_3_8 9))))
(assert
 (let (($x1327 (= cell_4_8 9)))
 (let (($x5730 (= cell_4_8 8)))
 (let (($x6337 (= cell_4_8 7)))
 (let (($x6427 (= cell_4_8 6)))
 (let (($x9214 (= cell_4_8 5)))
 (let (($x3648 (= cell_4_8 4)))
 (let (($x3479 (= cell_4_8 3)))
 (let (($x9659 (= cell_4_8 2)))
 (let (($x8779 (= cell_4_8 1)))
 (or $x8779 $x9659 $x3479 $x3648 $x9214 $x6427 $x6337 $x5730 $x1327)))))))))))
(assert
 (let (($x9307 (= cell_5_8 9)))
 (let (($x4983 (= cell_5_8 8)))
 (let (($x8730 (= cell_5_8 7)))
 (let (($x1991 (= cell_5_8 6)))
 (let (($x1072 (= cell_5_8 5)))
 (let (($x7378 (= cell_5_8 4)))
 (let (($x5562 (= cell_5_8 3)))
 (let (($x6055 (= cell_5_8 2)))
 (let (($x5299 (= cell_5_8 1)))
 (or $x5299 $x6055 $x5562 $x7378 $x1072 $x1991 $x8730 $x4983 $x9307)))))))))))
(assert
 (let (($x709 (= cell_6_8 1)))
 (or $x709 (= cell_6_8 2) (= cell_6_8 3) (= cell_6_8 4) (= cell_6_8 5) (= cell_6_8 6) (= cell_6_8 7) (= cell_6_8 8) (= cell_6_8 9))))
(assert
 (let (($x9516 (= cell_7_8 9)))
 (let (($x3099 (= cell_7_8 8)))
 (let (($x8744 (= cell_7_8 7)))
 (let (($x6878 (= cell_7_8 6)))
 (let (($x6149 (= cell_7_8 5)))
 (let (($x279 (= cell_7_8 4)))
 (let (($x3006 (= cell_7_8 3)))
 (let (($x60 (= cell_7_8 2)))
 (let (($x2170 (= cell_7_8 1)))
 (or $x2170 $x60 $x3006 $x279 $x6149 $x6878 $x8744 $x3099 $x9516)))))))))))
(assert
 (let (($x21 (= cell_8_8 9)))
 (let (($x2739 (= cell_8_8 8)))
 (let (($x4330 (= cell_8_8 7)))
 (let (($x8992 (= cell_8_8 6)))
 (let (($x3020 (= cell_8_8 5)))
 (let (($x9306 (= cell_8_8 4)))
 (let (($x1885 (= cell_8_8 3)))
 (let (($x8473 (= cell_8_8 2)))
 (let (($x9236 (= cell_8_8 1)))
 (or $x9236 $x8473 $x1885 $x9306 $x3020 $x8992 $x4330 $x2739 $x21)))))))))))
(assert
 (let (($x8749 (= cell_9_8 1)))
 (or $x8749 (= cell_9_8 2) (= cell_9_8 3) (= cell_9_8 4) (= cell_9_8 5) (= cell_9_8 6) (= cell_9_8 7) (= cell_9_8 8) (= cell_9_8 9))))
(assert
 (let (($x5955 (= cell_1_9 9)))
 (let (($x4826 (= cell_1_9 8)))
 (let (($x6789 (= cell_1_9 7)))
 (let (($x1290 (= cell_1_9 6)))
 (let (($x3185 (= cell_1_9 5)))
 (let (($x9418 (= cell_1_9 4)))
 (let (($x7767 (= cell_1_9 3)))
 (let (($x9134 (= cell_1_9 2)))
 (let (($x6562 (= cell_1_9 1)))
 (or $x6562 $x9134 $x7767 $x9418 $x3185 $x1290 $x6789 $x4826 $x5955)))))))))))
(assert
 (let (($x8281 (= cell_2_9 2)))
 (or (= cell_2_9 1) $x8281 (= cell_2_9 3) (= cell_2_9 4) (= cell_2_9 5) (= cell_2_9 6) (= cell_2_9 7) (= cell_2_9 8) (= cell_2_9 9))))
(assert
 (let (($x4549 (= cell_3_9 9)))
 (let (($x2837 (= cell_3_9 8)))
 (let (($x524 (= cell_3_9 7)))
 (let (($x2777 (= cell_3_9 6)))
 (let (($x3671 (= cell_3_9 5)))
 (let (($x8533 (= cell_3_9 4)))
 (let (($x165 (= cell_3_9 3)))
 (let (($x9734 (= cell_3_9 2)))
 (let (($x445 (= cell_3_9 1)))
 (or $x445 $x9734 $x165 $x8533 $x3671 $x2777 $x524 $x2837 $x4549)))))))))))
(assert
 (let (($x1045 (= cell_4_9 9)))
 (let (($x2671 (= cell_4_9 8)))
 (let (($x8138 (= cell_4_9 7)))
 (let (($x2451 (= cell_4_9 6)))
 (let (($x5772 (= cell_4_9 5)))
 (let (($x497 (= cell_4_9 4)))
 (let (($x9199 (= cell_4_9 3)))
 (let (($x7279 (= cell_4_9 2)))
 (let (($x10008 (= cell_4_9 1)))
 (or $x10008 $x7279 $x9199 $x497 $x5772 $x2451 $x8138 $x2671 $x1045)))))))))))
(assert
 (let (($x1712 (= cell_5_9 1)))
 (or $x1712 (= cell_5_9 2) (= cell_5_9 3) (= cell_5_9 4) (= cell_5_9 5) (= cell_5_9 6) (= cell_5_9 7) (= cell_5_9 8) (= cell_5_9 9))))
(assert
 (let (($x3738 (= cell_6_9 2)))
 (let (($x7349 (= cell_6_9 1)))
 (or $x7349 $x3738 (= cell_6_9 3) (= cell_6_9 4) (= cell_6_9 5) (= cell_6_9 6) (= cell_6_9 7) (= cell_6_9 8) (= cell_6_9 9)))))
(assert
 (let (($x9812 (= cell_7_9 9)))
 (let (($x9303 (= cell_7_9 8)))
 (let (($x4891 (= cell_7_9 7)))
 (let (($x5598 (= cell_7_9 6)))
 (let (($x2709 (= cell_7_9 5)))
 (let (($x1209 (= cell_7_9 4)))
 (let (($x4822 (= cell_7_9 3)))
 (let (($x8881 (= cell_7_9 2)))
 (let (($x7042 (= cell_7_9 1)))
 (or $x7042 $x8881 $x4822 $x1209 $x2709 $x5598 $x4891 $x9303 $x9812)))))))))))
(assert
 (let (($x7195 (= cell_8_9 9)))
 (let (($x1527 (= cell_8_9 8)))
 (let (($x9324 (= cell_8_9 7)))
 (let (($x2186 (= cell_8_9 6)))
 (let (($x1936 (= cell_8_9 5)))
 (let (($x6356 (= cell_8_9 4)))
 (let (($x9113 (= cell_8_9 3)))
 (let (($x5887 (= cell_8_9 2)))
 (let (($x4636 (= cell_8_9 1)))
 (or $x4636 $x5887 $x9113 $x6356 $x1936 $x2186 $x9324 $x1527 $x7195)))))))))))
(assert
 (let (($x6298 (= cell_9_9 2)))
 (let (($x9600 (= cell_9_9 1)))
 (or $x9600 $x6298 (= cell_9_9 3) (= cell_9_9 4) (= cell_9_9 5) (= cell_9_9 6) (= cell_9_9 7) (= cell_9_9 8) (= cell_9_9 9)))))
(assert
 (and (distinct cell_1_1 cell_1_2 cell_1_3 cell_1_4 cell_1_5 cell_1_6 cell_1_7 cell_1_8 cell_1_9) true))
(assert
 (and (distinct cell_2_1 cell_2_2 cell_2_3 cell_2_4 cell_2_5 cell_2_6 cell_2_7 cell_2_8 cell_2_9) true))
(assert
 (and (distinct cell_3_1 cell_3_2 cell_3_3 cell_3_4 cell_3_5 cell_3_6 cell_3_7 cell_3_8 cell_3_9) true))
(assert
 (and (distinct cell_4_1 cell_4_2 cell_4_3 cell_4_4 cell_4_5 cell_4_6 cell_4_7 cell_4_8 cell_4_9) true))
(assert
 (and (distinct cell_5_1 cell_5_2 cell_5_3 cell_5_4 cell_5_5 cell_5_6 cell_5_7 cell_5_8 cell_5_9) true))
(assert
 (and (distinct cell_6_1 cell_6_2 cell_6_3 cell_6_4 cell_6_5 cell_6_6 cell_6_7 cell_6_8 cell_6_9) true))
(assert
 (and (distinct cell_7_1 cell_7_2 cell_7_3 cell_7_4 cell_7_5 cell_7_6 cell_7_7 cell_7_8 cell_7_9) true))
(assert
 (and (distinct cell_8_1 cell_8_2 cell_8_3 cell_8_4 cell_8_5 cell_8_6 cell_8_7 cell_8_8 cell_8_9) true))
(assert
 (and (distinct cell_9_1 cell_9_2 cell_9_3 cell_9_4 cell_9_5 cell_9_6 cell_9_7 cell_9_8 cell_9_9) true))
(assert
 (and (distinct cell_1_1 cell_2_1 cell_3_1 cell_4_1 cell_5_1 cell_6_1 cell_7_1 cell_8_1 cell_9_1) true))
(assert
 (and (distinct cell_1_2 cell_2_2 cell_3_2 cell_4_2 cell_5_2 cell_6_2 cell_7_2 cell_8_2 cell_9_2) true))
(assert
 (and (distinct cell_1_3 cell_2_3 cell_3_3 cell_4_3 cell_5_3 cell_6_3 cell_7_3 cell_8_3 cell_9_3) true))
(assert
 (and (distinct cell_1_4 cell_2_4 cell_3_4 cell_4_4 cell_5_4 cell_6_4 cell_7_4 cell_8_4 cell_9_4) true))
(assert
 (and (distinct cell_1_5 cell_2_5 cell_3_5 cell_4_5 cell_5_5 cell_6_5 cell_7_5 cell_8_5 cell_9_5) true))
(assert
 (and (distinct cell_1_6 cell_2_6 cell_3_6 cell_4_6 cell_5_6 cell_6_6 cell_7_6 cell_8_6 cell_9_6) true))
(assert
 (and (distinct cell_1_7 cell_2_7 cell_3_7 cell_4_7 cell_5_7 cell_6_7 cell_7_7 cell_8_7 cell_9_7) true))
(assert
 (and (distinct cell_1_8 cell_2_8 cell_3_8 cell_4_8 cell_5_8 cell_6_8 cell_7_8 cell_8_8 cell_9_8) true))
(assert
 (and (distinct cell_1_9 cell_2_9 cell_3_9 cell_4_9 cell_5_9 cell_6_9 cell_7_9 cell_8_9 cell_9_9) true))
(assert
 (and (distinct cell_1_1 cell_1_2 cell_1_3 cell_2_1 cell_2_2 cell_2_3 cell_3_1 cell_3_2 cell_3_3) true))
(assert
 (and (distinct cell_1_4 cell_1_5 cell_1_6 cell_2_4 cell_2_5 cell_2_6 cell_3_4 cell_3_5 cell_3_6) true))
(assert
 (and (distinct cell_1_7 cell_1_8 cell_1_9 cell_2_7 cell_2_8 cell_2_9 cell_3_7 cell_3_8 cell_3_9) true))
(assert
 (and (distinct cell_4_1 cell_4_2 cell_4_3 cell_5_1 cell_5_2 cell_5_3 cell_6_1 cell_6_2 cell_6_3) true))
(assert
 (and (distinct cell_4_4 cell_4_5 cell_4_6 cell_5_4 cell_5_5 cell_5_6 cell_6_4 cell_6_5 cell_6_6) true))
(assert
 (and (distinct cell_4_7 cell_4_8 cell_4_9 cell_5_7 cell_5_8 cell_5_9 cell_6_7 cell_6_8 cell_6_9) true))
(assert
 (and (distinct cell_7_1 cell_7_2 cell_7_3 cell_8_1 cell_8_2 cell_8_3 cell_9_1 cell_9_2 cell_9_3) true))
(assert
 (and (distinct cell_7_4 cell_7_5 cell_7_6 cell_8_4 cell_8_5 cell_8_6 cell_9_4 cell_9_5 cell_9_6) true))
(assert
 (and (distinct cell_7_7 cell_7_8 cell_7_9 cell_8_7 cell_8_8 cell_8_9 cell_9_7 cell_9_8 cell_9_9) true))
(assert
 (let (($x5376 (and (distinct cell_5_9 cell_6_8 cell_7_7 cell_8_6) true)))
 (let (($x7398 (and (distinct cell_2_9 cell_3_8 cell_4_7 cell_5_6 cell_6_5 cell_7_4 cell_8_3 cell_9_2) true)))
 (let (($x6923 (and (distinct cell_1_8 cell_2_7 cell_3_6 cell_4_5 cell_5_4 cell_6_3 cell_7_2 cell_8_1) true)))
 (let (($x5778 (and (distinct cell_1_5 cell_2_4 cell_3_3 cell_4_2) true)))
 (let (($x6822 (and (distinct cell_5_1 cell_6_2 cell_7_3 cell_8_4) true)))
 (let (($x6825 (and (distinct cell_2_1 cell_3_2 cell_4_3 cell_5_4 cell_6_5 cell_7_6 cell_8_7 cell_9_8) true)))
 (let (($x2884 (and (distinct cell_1_2 cell_2_3 cell_3_4 cell_4_5 cell_5_6 cell_6_7 cell_7_8 cell_8_9) true)))
 (let (($x3544 (and (distinct cell_1_5 cell_2_6 cell_3_7 cell_4_8) true)))
 (and $x3544 $x2884 $x6825 $x6822 $x5778 $x6923 $x7398 $x5376))))))))))
(assert
 (and (distinct cell_5_7 2) true))
(check-sat)
